8790
1 1 1 1 1 1 1 1 1 1
2 8 8 3 6 8 4 3 0 3 9 1 8 9 1 7 2 6 4 2 0 5 0 6 6 7 1 7 7 9 4 3 7 3 4 0 2 0 7 1 9 0 9 2 0 0 6 5 1 5 7 3 9 0 3 9 0 7 9 3 5 8 3 4 6 5 5 1 5 3 5 5 8 7 9 0 6 8 3 9 0 5 1 5 5 0 4 6 6 6